p tw 20 53
0 1
0 2
0 5
0 14
0 19
0 18
0 12
0 3
1 4
2 5
2 9
2 19
2 17
2 7
3 4
3 6
3 16
3 13
3 12
4 9
5 7
5 8
5 10
5 13
5 12
5 6
5 15
5 11
6 12
6 16
6 9
6 14
6 15
6 10
7 14
7 9
8 14
8 10
8 19
8 11
8 15
9 12
10 11
11 14
12 17
12 18
13 17
13 15
14 15
14 17
15 17
16 19
17 19
